Data/Output/CPLEX_3/SecureWebContainer_offers_20_pre0_sym0.lp
\ This file has been generated by DOcplex
\ ENCODING=ISO-8859-1
\Problem name: CPLEX_deployment

Minimize
 obj: Price_VM1 + Price_VM2 + Price_VM3 + Price_VM4 + Price_VM5
Subject To
 BasicAllocation_1: C1_VM1 + C1_VM2 + C1_VM3 + C1_VM4 + C1_VM5 >= 1
 BasicAllocation_2: C2_VM1 + C2_VM2 + C2_VM3 + C2_VM4 + C2_VM5 >= 1
 BasicAllocation_3: C3_VM1 + C3_VM2 + C3_VM3 + C3_VM4 + C3_VM5 >= 1
 BasicAllocation_4: C4_VM1 + C4_VM2 + C4_VM3 + C4_VM4 + C4_VM5 >= 1
 BasicAllocation_5: C5_VM1 + C5_VM2 + C5_VM3 + C5_VM4 + C5_VM5 >= 1
 OccupancyLB_1: C1_VM1 + C2_VM1 + C3_VM1 + C4_VM1 + C5_VM1 - v_1 >= 0
 OccupancyUB_1: C1_VM1 + C2_VM1 + C3_VM1 + C4_VM1 + C5_VM1 - 5 v_1 <= 0
 OccupancyLB_2: C1_VM2 + C2_VM2 + C3_VM2 + C4_VM2 + C5_VM2 - v_2 >= 0
 OccupancyUB_2: C1_VM2 + C2_VM2 + C3_VM2 + C4_VM2 + C5_VM2 - 5 v_2 <= 0
 OccupancyLB_3: C1_VM3 + C2_VM3 + C3_VM3 + C4_VM3 + C5_VM3 - v_3 >= 0
 OccupancyUB_3: C1_VM3 + C2_VM3 + C3_VM3 + C4_VM3 + C5_VM3 - 5 v_3 <= 0
 OccupancyLB_4: C1_VM4 + C2_VM4 + C3_VM4 + C4_VM4 + C5_VM4 - v_4 >= 0
 OccupancyUB_4: C1_VM4 + C2_VM4 + C3_VM4 + C4_VM4 + C5_VM4 - 5 v_4 <= 0
 OccupancyLB_5: C1_VM5 + C2_VM5 + C3_VM5 + C4_VM5 + C5_VM5 - v_5 >= 0
 OccupancyUB_5: C1_VM5 + C2_VM5 + C3_VM5 + C4_VM5 + C5_VM5 - 5 v_5 <= 0
 Capacity_cpu_VM1: 4 C1_VM1 + 2 C2_VM1 + 4 C3_VM1 + 8 C4_VM1 + C5_VM1
                   - 64 VM1_Offer1 - 64 VM1_Offer2 - 64 VM1_Offer3
                   - 32 VM1_Offer4 - 32 VM1_Offer5 - 16 VM1_Offer6
                   - 16 VM1_Offer7 - 17 VM1_Offer8 - 16 VM1_Offer9
                   - 8 VM1_Offer10 - 8 VM1_Offer11 - 8 VM1_Offer12
                   - 4 VM1_Offer13 - 4 VM1_Offer14 - 4 VM1_Offer15
                   - 2 VM1_Offer16 - 2 VM1_Offer17 - VM1_Offer18 - VM1_Offer19
                   - VM1_Offer20 <= 0
 Capacity_memory_VM1: 2048 C1_VM1 + 512 C2_VM1 + 2048 C3_VM1 + 16000 C4_VM1
                      + 256 C5_VM1 - 976000 VM1_Offer1 - 488000 VM1_Offer2
                      - 1952 VM1_Offer3 - 244000 VM1_Offer4 - 244000 VM1_Offer5
                      - 122000 VM1_Offer6 - 30000 VM1_Offer7 - 117000 VM1_Offer8
                      - 122000 VM1_Offer9 - 61000 VM1_Offer10
                      - 68400 VM1_Offer11 - 68400 VM1_Offer12
                      - 15000 VM1_Offer13 - 30500 VM1_Offer14
                      - 30500 VM1_Offer15 - 7500 VM1_Offer16 - 3750 VM1_Offer17
                      - 1700 VM1_Offer18 - 3750 VM1_Offer19 - 3750 VM1_Offer20
                       <= 0
 Capacity_storage_VM1: 500 C1_VM1 + 1000 C2_VM1 + 1000 C3_VM1 + 2000 C4_VM1
                       + 250 C5_VM1 - 1000 VM1_Offer1 - 8000 VM1_Offer2
                       - 1000 VM1_Offer3 - 2000 VM1_Offer4 - 4000 VM1_Offer5
                       - 2000 VM1_Offer6 - 2000 VM1_Offer7 - 24000 VM1_Offer8
                       - 1000 VM1_Offer9 - 6000 VM1_Offer10 - 2000 VM1_Offer11
                       - 2000 VM1_Offer12 - 2000 VM1_Offer13 - 3000 VM1_Offer14
                       - 1000 VM1_Offer15 - 1000 VM1_Offer16 - 2000 VM1_Offer17
                       - 1000 VM1_Offer18 - 1000 VM1_Offer19 - 1000 VM1_Offer20
                        <= 0
 Capacity_cpu_VM2: 4 C1_VM2 + 2 C2_VM2 + 4 C3_VM2 + 8 C4_VM2 + C5_VM2
                   - 64 VM2_Offer1 - 64 VM2_Offer2 - 64 VM2_Offer3
                   - 32 VM2_Offer4 - 32 VM2_Offer5 - 16 VM2_Offer6
                   - 16 VM2_Offer7 - 17 VM2_Offer8 - 16 VM2_Offer9
                   - 8 VM2_Offer10 - 8 VM2_Offer11 - 8 VM2_Offer12
                   - 4 VM2_Offer13 - 4 VM2_Offer14 - 4 VM2_Offer15
                   - 2 VM2_Offer16 - 2 VM2_Offer17 - VM2_Offer18 - VM2_Offer19
                   - VM2_Offer20 <= 0
 Capacity_memory_VM2: 2048 C1_VM2 + 512 C2_VM2 + 2048 C3_VM2 + 16000 C4_VM2
                      + 256 C5_VM2 - 976000 VM2_Offer1 - 488000 VM2_Offer2
                      - 1952 VM2_Offer3 - 244000 VM2_Offer4 - 244000 VM2_Offer5
                      - 122000 VM2_Offer6 - 30000 VM2_Offer7 - 117000 VM2_Offer8
                      - 122000 VM2_Offer9 - 61000 VM2_Offer10
                      - 68400 VM2_Offer11 - 68400 VM2_Offer12
                      - 15000 VM2_Offer13 - 30500 VM2_Offer14
                      - 30500 VM2_Offer15 - 7500 VM2_Offer16 - 3750 VM2_Offer17
                      - 1700 VM2_Offer18 - 3750 VM2_Offer19 - 3750 VM2_Offer20
                       <= 0
 Capacity_storage_VM2: 500 C1_VM2 + 1000 C2_VM2 + 1000 C3_VM2 + 2000 C4_VM2
                       + 250 C5_VM2 - 1000 VM2_Offer1 - 8000 VM2_Offer2
                       - 1000 VM2_Offer3 - 2000 VM2_Offer4 - 4000 VM2_Offer5
                       - 2000 VM2_Offer6 - 2000 VM2_Offer7 - 24000 VM2_Offer8
                       - 1000 VM2_Offer9 - 6000 VM2_Offer10 - 2000 VM2_Offer11
                       - 2000 VM2_Offer12 - 2000 VM2_Offer13 - 3000 VM2_Offer14
                       - 1000 VM2_Offer15 - 1000 VM2_Offer16 - 2000 VM2_Offer17
                       - 1000 VM2_Offer18 - 1000 VM2_Offer19 - 1000 VM2_Offer20
                        <= 0
 Capacity_cpu_VM3: 4 C1_VM3 + 2 C2_VM3 + 4 C3_VM3 + 8 C4_VM3 + C5_VM3
                   - 64 VM3_Offer1 - 64 VM3_Offer2 - 64 VM3_Offer3
                   - 32 VM3_Offer4 - 32 VM3_Offer5 - 16 VM3_Offer6
                   - 16 VM3_Offer7 - 17 VM3_Offer8 - 16 VM3_Offer9
                   - 8 VM3_Offer10 - 8 VM3_Offer11 - 8 VM3_Offer12
                   - 4 VM3_Offer13 - 4 VM3_Offer14 - 4 VM3_Offer15
                   - 2 VM3_Offer16 - 2 VM3_Offer17 - VM3_Offer18 - VM3_Offer19
                   - VM3_Offer20 <= 0
 Capacity_memory_VM3: 2048 C1_VM3 + 512 C2_VM3 + 2048 C3_VM3 + 16000 C4_VM3
                      + 256 C5_VM3 - 976000 VM3_Offer1 - 488000 VM3_Offer2
                      - 1952 VM3_Offer3 - 244000 VM3_Offer4 - 244000 VM3_Offer5
                      - 122000 VM3_Offer6 - 30000 VM3_Offer7 - 117000 VM3_Offer8
                      - 122000 VM3_Offer9 - 61000 VM3_Offer10
                      - 68400 VM3_Offer11 - 68400 VM3_Offer12
                      - 15000 VM3_Offer13 - 30500 VM3_Offer14
                      - 30500 VM3_Offer15 - 7500 VM3_Offer16 - 3750 VM3_Offer17
                      - 1700 VM3_Offer18 - 3750 VM3_Offer19 - 3750 VM3_Offer20
                       <= 0
 Capacity_storage_VM3: 500 C1_VM3 + 1000 C2_VM3 + 1000 C3_VM3 + 2000 C4_VM3
                       + 250 C5_VM3 - 1000 VM3_Offer1 - 8000 VM3_Offer2
                       - 1000 VM3_Offer3 - 2000 VM3_Offer4 - 4000 VM3_Offer5
                       - 2000 VM3_Offer6 - 2000 VM3_Offer7 - 24000 VM3_Offer8
                       - 1000 VM3_Offer9 - 6000 VM3_Offer10 - 2000 VM3_Offer11
                       - 2000 VM3_Offer12 - 2000 VM3_Offer13 - 3000 VM3_Offer14
                       - 1000 VM3_Offer15 - 1000 VM3_Offer16 - 2000 VM3_Offer17
                       - 1000 VM3_Offer18 - 1000 VM3_Offer19 - 1000 VM3_Offer20
                        <= 0
 Capacity_cpu_VM4: 4 C1_VM4 + 2 C2_VM4 + 4 C3_VM4 + 8 C4_VM4 + C5_VM4
                   - 64 VM4_Offer1 - 64 VM4_Offer2 - 64 VM4_Offer3
                   - 32 VM4_Offer4 - 32 VM4_Offer5 - 16 VM4_Offer6
                   - 16 VM4_Offer7 - 17 VM4_Offer8 - 16 VM4_Offer9
                   - 8 VM4_Offer10 - 8 VM4_Offer11 - 8 VM4_Offer12
                   - 4 VM4_Offer13 - 4 VM4_Offer14 - 4 VM4_Offer15
                   - 2 VM4_Offer16 - 2 VM4_Offer17 - VM4_Offer18 - VM4_Offer19
                   - VM4_Offer20 <= 0
 Capacity_memory_VM4: 2048 C1_VM4 + 512 C2_VM4 + 2048 C3_VM4 + 16000 C4_VM4
                      + 256 C5_VM4 - 976000 VM4_Offer1 - 488000 VM4_Offer2
                      - 1952 VM4_Offer3 - 244000 VM4_Offer4 - 244000 VM4_Offer5
                      - 122000 VM4_Offer6 - 30000 VM4_Offer7 - 117000 VM4_Offer8
                      - 122000 VM4_Offer9 - 61000 VM4_Offer10
                      - 68400 VM4_Offer11 - 68400 VM4_Offer12
                      - 15000 VM4_Offer13 - 30500 VM4_Offer14
                      - 30500 VM4_Offer15 - 7500 VM4_Offer16 - 3750 VM4_Offer17
                      - 1700 VM4_Offer18 - 3750 VM4_Offer19 - 3750 VM4_Offer20
                       <= 0
 Capacity_storage_VM4: 500 C1_VM4 + 1000 C2_VM4 + 1000 C3_VM4 + 2000 C4_VM4
                       + 250 C5_VM4 - 1000 VM4_Offer1 - 8000 VM4_Offer2
                       - 1000 VM4_Offer3 - 2000 VM4_Offer4 - 4000 VM4_Offer5
                       - 2000 VM4_Offer6 - 2000 VM4_Offer7 - 24000 VM4_Offer8
                       - 1000 VM4_Offer9 - 6000 VM4_Offer10 - 2000 VM4_Offer11
                       - 2000 VM4_Offer12 - 2000 VM4_Offer13 - 3000 VM4_Offer14
                       - 1000 VM4_Offer15 - 1000 VM4_Offer16 - 2000 VM4_Offer17
                       - 1000 VM4_Offer18 - 1000 VM4_Offer19 - 1000 VM4_Offer20
                        <= 0
 Capacity_cpu_VM5: 4 C1_VM5 + 2 C2_VM5 + 4 C3_VM5 + 8 C4_VM5 + C5_VM5
                   - 64 VM5_Offer1 - 64 VM5_Offer2 - 64 VM5_Offer3
                   - 32 VM5_Offer4 - 32 VM5_Offer5 - 16 VM5_Offer6
                   - 16 VM5_Offer7 - 17 VM5_Offer8 - 16 VM5_Offer9
                   - 8 VM5_Offer10 - 8 VM5_Offer11 - 8 VM5_Offer12
                   - 4 VM5_Offer13 - 4 VM5_Offer14 - 4 VM5_Offer15
                   - 2 VM5_Offer16 - 2 VM5_Offer17 - VM5_Offer18 - VM5_Offer19
                   - VM5_Offer20 <= 0
 Capacity_memory_VM5: 2048 C1_VM5 + 512 C2_VM5 + 2048 C3_VM5 + 16000 C4_VM5
                      + 256 C5_VM5 - 976000 VM5_Offer1 - 488000 VM5_Offer2
                      - 1952 VM5_Offer3 - 244000 VM5_Offer4 - 244000 VM5_Offer5
                      - 122000 VM5_Offer6 - 30000 VM5_Offer7 - 117000 VM5_Offer8
                      - 122000 VM5_Offer9 - 61000 VM5_Offer10
                      - 68400 VM5_Offer11 - 68400 VM5_Offer12
                      - 15000 VM5_Offer13 - 30500 VM5_Offer14
                      - 30500 VM5_Offer15 - 7500 VM5_Offer16 - 3750 VM5_Offer17
                      - 1700 VM5_Offer18 - 3750 VM5_Offer19 - 3750 VM5_Offer20
                       <= 0
 Capacity_storage_VM5: 500 C1_VM5 + 1000 C2_VM5 + 1000 C3_VM5 + 2000 C4_VM5
                       + 250 C5_VM5 - 1000 VM5_Offer1 - 8000 VM5_Offer2
                       - 1000 VM5_Offer3 - 2000 VM5_Offer4 - 4000 VM5_Offer5
                       - 2000 VM5_Offer6 - 2000 VM5_Offer7 - 24000 VM5_Offer8
                       - 1000 VM5_Offer9 - 6000 VM5_Offer10 - 2000 VM5_Offer11
                       - 2000 VM5_Offer12 - 2000 VM5_Offer13 - 3000 VM5_Offer14
                       - 1000 VM5_Offer15 - 1000 VM5_Offer16 - 2000 VM5_Offer17
                       - 1000 VM5_Offer18 - 1000 VM5_Offer19 - 1000 VM5_Offer20
                        <= 0
 Vm_Type_1: VM1_Offer1 + VM1_Offer2 + VM1_Offer3 + VM1_Offer4 + VM1_Offer5
            + VM1_Offer6 + VM1_Offer7 + VM1_Offer8 + VM1_Offer9 + VM1_Offer10
            + VM1_Offer11 + VM1_Offer12 + VM1_Offer13 + VM1_Offer14
            + VM1_Offer15 + VM1_Offer16 + VM1_Offer17 + VM1_Offer18
            + VM1_Offer19 + VM1_Offer20 - v_1 = 0
 PriceProv_1: Price_VM1 - 8403 VM1_Offer1 - 9152 VM1_Offer2 - 16000 VM1_Offer3
              - 4105 VM1_Offer4 - 4576 VM1_Offer5 - 1373 VM1_Offer6
              - 1430 VM1_Offer7 - 5400 VM1_Offer8 - 3079 VM1_Offer9
              - 1470 VM1_Offer10 - 1301 VM1_Offer11 - 1288 VM1_Offer12
              - 402 VM1_Offer13 - 827 VM1_Offer14 - 379 VM1_Offer15
              - 146 VM1_Offer16 - 128 VM1_Offer17 - 58 VM1_Offer18
              - 93 VM1_Offer19 - 98 VM1_Offer20 = 0
 Vm_Type_2: VM2_Offer1 + VM2_Offer2 + VM2_Offer3 + VM2_Offer4 + VM2_Offer5
            + VM2_Offer6 + VM2_Offer7 + VM2_Offer8 + VM2_Offer9 + VM2_Offer10
            + VM2_Offer11 + VM2_Offer12 + VM2_Offer13 + VM2_Offer14
            + VM2_Offer15 + VM2_Offer16 + VM2_Offer17 + VM2_Offer18
            + VM2_Offer19 + VM2_Offer20 - v_2 = 0
 PriceProv_2: Price_VM2 - 8403 VM2_Offer1 - 9152 VM2_Offer2 - 16000 VM2_Offer3
              - 4105 VM2_Offer4 - 4576 VM2_Offer5 - 1373 VM2_Offer6
              - 1430 VM2_Offer7 - 5400 VM2_Offer8 - 3079 VM2_Offer9
              - 1470 VM2_Offer10 - 1301 VM2_Offer11 - 1288 VM2_Offer12
              - 402 VM2_Offer13 - 827 VM2_Offer14 - 379 VM2_Offer15
              - 146 VM2_Offer16 - 128 VM2_Offer17 - 58 VM2_Offer18
              - 93 VM2_Offer19 - 98 VM2_Offer20 = 0
 Vm_Type_3: VM3_Offer1 + VM3_Offer2 + VM3_Offer3 + VM3_Offer4 + VM3_Offer5
            + VM3_Offer6 + VM3_Offer7 + VM3_Offer8 + VM3_Offer9 + VM3_Offer10
            + VM3_Offer11 + VM3_Offer12 + VM3_Offer13 + VM3_Offer14
            + VM3_Offer15 + VM3_Offer16 + VM3_Offer17 + VM3_Offer18
            + VM3_Offer19 + VM3_Offer20 - v_3 = 0
 PriceProv_3: Price_VM3 - 8403 VM3_Offer1 - 9152 VM3_Offer2 - 16000 VM3_Offer3
              - 4105 VM3_Offer4 - 4576 VM3_Offer5 - 1373 VM3_Offer6
              - 1430 VM3_Offer7 - 5400 VM3_Offer8 - 3079 VM3_Offer9
              - 1470 VM3_Offer10 - 1301 VM3_Offer11 - 1288 VM3_Offer12
              - 402 VM3_Offer13 - 827 VM3_Offer14 - 379 VM3_Offer15
              - 146 VM3_Offer16 - 128 VM3_Offer17 - 58 VM3_Offer18
              - 93 VM3_Offer19 - 98 VM3_Offer20 = 0
 Vm_Type_4: VM4_Offer1 + VM4_Offer2 + VM4_Offer3 + VM4_Offer4 + VM4_Offer5
            + VM4_Offer6 + VM4_Offer7 + VM4_Offer8 + VM4_Offer9 + VM4_Offer10
            + VM4_Offer11 + VM4_Offer12 + VM4_Offer13 + VM4_Offer14
            + VM4_Offer15 + VM4_Offer16 + VM4_Offer17 + VM4_Offer18
            + VM4_Offer19 + VM4_Offer20 - v_4 = 0
 PriceProv_4: Price_VM4 - 8403 VM4_Offer1 - 9152 VM4_Offer2 - 16000 VM4_Offer3
              - 4105 VM4_Offer4 - 4576 VM4_Offer5 - 1373 VM4_Offer6
              - 1430 VM4_Offer7 - 5400 VM4_Offer8 - 3079 VM4_Offer9
              - 1470 VM4_Offer10 - 1301 VM4_Offer11 - 1288 VM4_Offer12
              - 402 VM4_Offer13 - 827 VM4_Offer14 - 379 VM4_Offer15
              - 146 VM4_Offer16 - 128 VM4_Offer17 - 58 VM4_Offer18
              - 93 VM4_Offer19 - 98 VM4_Offer20 = 0
 Vm_Type_5: VM5_Offer1 + VM5_Offer2 + VM5_Offer3 + VM5_Offer4 + VM5_Offer5
            + VM5_Offer6 + VM5_Offer7 + VM5_Offer8 + VM5_Offer9 + VM5_Offer10
            + VM5_Offer11 + VM5_Offer12 + VM5_Offer13 + VM5_Offer14
            + VM5_Offer15 + VM5_Offer16 + VM5_Offer17 + VM5_Offer18
            + VM5_Offer19 + VM5_Offer20 - v_5 = 0
 PriceProv_5: Price_VM5 - 8403 VM5_Offer1 - 9152 VM5_Offer2 - 16000 VM5_Offer3
              - 4105 VM5_Offer4 - 4576 VM5_Offer5 - 1373 VM5_Offer6
              - 1430 VM5_Offer7 - 5400 VM5_Offer8 - 3079 VM5_Offer9
              - 1470 VM5_Offer10 - 1301 VM5_Offer11 - 1288 VM5_Offer12
              - 402 VM5_Offer13 - 827 VM5_Offer14 - 379 VM5_Offer15
              - 146 VM5_Offer16 - 128 VM5_Offer17 - 58 VM5_Offer18
              - 93 VM5_Offer19 - 98 VM5_Offer20 = 0

Bounds
 0 <= C1_VM1 <= 1
 0 <= C1_VM2 <= 1
 0 <= C1_VM3 <= 1
 0 <= C1_VM4 <= 1
 0 <= C1_VM5 <= 1
 0 <= C2_VM1 <= 1
 0 <= C2_VM2 <= 1
 0 <= C2_VM3 <= 1
 0 <= C2_VM4 <= 1
 0 <= C2_VM5 <= 1
 0 <= C3_VM1 <= 1
 0 <= C3_VM2 <= 1
 0 <= C3_VM3 <= 1
 0 <= C3_VM4 <= 1
 0 <= C3_VM5 <= 1
 0 <= C4_VM1 <= 1
 0 <= C4_VM2 <= 1
 0 <= C4_VM3 <= 1
 0 <= C4_VM4 <= 1
 0 <= C4_VM5 <= 1
 0 <= C5_VM1 <= 1
 0 <= C5_VM2 <= 1
 0 <= C5_VM3 <= 1
 0 <= C5_VM4 <= 1
 0 <= C5_VM5 <= 1
 0 <= VM1_Offer1 <= 1
 0 <= VM1_Offer2 <= 1
 0 <= VM1_Offer3 <= 1
 0 <= VM1_Offer4 <= 1
 0 <= VM1_Offer5 <= 1
 0 <= VM1_Offer6 <= 1
 0 <= VM1_Offer7 <= 1
 0 <= VM1_Offer8 <= 1
 0 <= VM1_Offer9 <= 1
 0 <= VM1_Offer10 <= 1
 0 <= VM1_Offer11 <= 1
 0 <= VM1_Offer12 <= 1
 0 <= VM1_Offer13 <= 1
 0 <= VM1_Offer14 <= 1
 0 <= VM1_Offer15 <= 1
 0 <= VM1_Offer16 <= 1
 0 <= VM1_Offer17 <= 1
 0 <= VM1_Offer18 <= 1
 0 <= VM1_Offer19 <= 1
 0 <= VM1_Offer20 <= 1
 0 <= VM2_Offer1 <= 1
 0 <= VM2_Offer2 <= 1
 0 <= VM2_Offer3 <= 1
 0 <= VM2_Offer4 <= 1
 0 <= VM2_Offer5 <= 1
 0 <= VM2_Offer6 <= 1
 0 <= VM2_Offer7 <= 1
 0 <= VM2_Offer8 <= 1
 0 <= VM2_Offer9 <= 1
 0 <= VM2_Offer10 <= 1
 0 <= VM2_Offer11 <= 1
 0 <= VM2_Offer12 <= 1
 0 <= VM2_Offer13 <= 1
 0 <= VM2_Offer14 <= 1
 0 <= VM2_Offer15 <= 1
 0 <= VM2_Offer16 <= 1
 0 <= VM2_Offer17 <= 1
 0 <= VM2_Offer18 <= 1
 0 <= VM2_Offer19 <= 1
 0 <= VM2_Offer20 <= 1
 0 <= VM3_Offer1 <= 1
 0 <= VM3_Offer2 <= 1
 0 <= VM3_Offer3 <= 1
 0 <= VM3_Offer4 <= 1
 0 <= VM3_Offer5 <= 1
 0 <= VM3_Offer6 <= 1
 0 <= VM3_Offer7 <= 1
 0 <= VM3_Offer8 <= 1
 0 <= VM3_Offer9 <= 1
 0 <= VM3_Offer10 <= 1
 0 <= VM3_Offer11 <= 1
 0 <= VM3_Offer12 <= 1
 0 <= VM3_Offer13 <= 1
 0 <= VM3_Offer14 <= 1
 0 <= VM3_Offer15 <= 1
 0 <= VM3_Offer16 <= 1
 0 <= VM3_Offer17 <= 1
 0 <= VM3_Offer18 <= 1
 0 <= VM3_Offer19 <= 1
 0 <= VM3_Offer20 <= 1
 0 <= VM4_Offer1 <= 1
 0 <= VM4_Offer2 <= 1
 0 <= VM4_Offer3 <= 1
 0 <= VM4_Offer4 <= 1
 0 <= VM4_Offer5 <= 1
 0 <= VM4_Offer6 <= 1
 0 <= VM4_Offer7 <= 1
 0 <= VM4_Offer8 <= 1
 0 <= VM4_Offer9 <= 1
 0 <= VM4_Offer10 <= 1
 0 <= VM4_Offer11 <= 1
 0 <= VM4_Offer12 <= 1
 0 <= VM4_Offer13 <= 1
 0 <= VM4_Offer14 <= 1
 0 <= VM4_Offer15 <= 1
 0 <= VM4_Offer16 <= 1
 0 <= VM4_Offer17 <= 1
 0 <= VM4_Offer18 <= 1
 0 <= VM4_Offer19 <= 1
 0 <= VM4_Offer20 <= 1
 0 <= VM5_Offer1 <= 1
 0 <= VM5_Offer2 <= 1
 0 <= VM5_Offer3 <= 1
 0 <= VM5_Offer4 <= 1
 0 <= VM5_Offer5 <= 1
 0 <= VM5_Offer6 <= 1
 0 <= VM5_Offer7 <= 1
 0 <= VM5_Offer8 <= 1
 0 <= VM5_Offer9 <= 1
 0 <= VM5_Offer10 <= 1
 0 <= VM5_Offer11 <= 1
 0 <= VM5_Offer12 <= 1
 0 <= VM5_Offer13 <= 1
 0 <= VM5_Offer14 <= 1
 0 <= VM5_Offer15 <= 1
 0 <= VM5_Offer16 <= 1
 0 <= VM5_Offer17 <= 1
 0 <= VM5_Offer18 <= 1
 0 <= VM5_Offer19 <= 1
 0 <= VM5_Offer20 <= 1
 0 <= v_1 <= 1
 0 <= v_2 <= 1
 0 <= v_3 <= 1
 0 <= v_4 <= 1
 0 <= v_5 <= 1

Binaries
 C1_VM1 C1_VM2 C1_VM3 C1_VM4 C1_VM5 C2_VM1 C2_VM2 C2_VM3 C2_VM4 C2_VM5 C3_VM1
 C3_VM2 C3_VM3 C3_VM4 C3_VM5 C4_VM1 C4_VM2 C4_VM3 C4_VM4 C4_VM5 C5_VM1 C5_VM2
 C5_VM3 C5_VM4 C5_VM5 VM1_Offer1 VM1_Offer2 VM1_Offer3 VM1_Offer4 VM1_Offer5
 VM1_Offer6 VM1_Offer7 VM1_Offer8 VM1_Offer9 VM1_Offer10 VM1_Offer11 VM1_Offer12
 VM1_Offer13 VM1_Offer14 VM1_Offer15 VM1_Offer16 VM1_Offer17 VM1_Offer18
 VM1_Offer19 VM1_Offer20 VM2_Offer1 VM2_Offer2 VM2_Offer3 VM2_Offer4 VM2_Offer5
 VM2_Offer6 VM2_Offer7 VM2_Offer8 VM2_Offer9 VM2_Offer10 VM2_Offer11 VM2_Offer12
 VM2_Offer13 VM2_Offer14 VM2_Offer15 VM2_Offer16 VM2_Offer17 VM2_Offer18
 VM2_Offer19 VM2_Offer20 VM3_Offer1 VM3_Offer2 VM3_Offer3 VM3_Offer4 VM3_Offer5
 VM3_Offer6 VM3_Offer7 VM3_Offer8 VM3_Offer9 VM3_Offer10 VM3_Offer11 VM3_Offer12
 VM3_Offer13 VM3_Offer14 VM3_Offer15 VM3_Offer16 VM3_Offer17 VM3_Offer18
 VM3_Offer19 VM3_Offer20 VM4_Offer1 VM4_Offer2 VM4_Offer3 VM4_Offer4 VM4_Offer5
 VM4_Offer6 VM4_Offer7 VM4_Offer8 VM4_Offer9 VM4_Offer10 VM4_Offer11 VM4_Offer12
 VM4_Offer13 VM4_Offer14 VM4_Offer15 VM4_Offer16 VM4_Offer17 VM4_Offer18
 VM4_Offer19 VM4_Offer20 VM5_Offer1 VM5_Offer2 VM5_Offer3 VM5_Offer4 VM5_Offer5
 VM5_Offer6 VM5_Offer7 VM5_Offer8 VM5_Offer9 VM5_Offer10 VM5_Offer11 VM5_Offer12
 VM5_Offer13 VM5_Offer14 VM5_Offer15 VM5_Offer16 VM5_Offer17 VM5_Offer18
 VM5_Offer19 VM5_Offer20 v_1 v_2 v_3 v_4 v_5
End
